Set parameter TokenServer to value "hpc-licenses.hpcc.usc.edu"
Set parameter TimeLimit to value 3600
Gurobi Optimizer version 9.5.1 build v9.5.1rc2 (linux64)
Thread count: 20 physical cores, 20 logical processors, using up to 20 threads
Optimize a model with 6007 rows, 4529 columns and 24534 nonzeros
Model fingerprint: 0x347445de
Variable types: 4506 continuous, 23 integer (23 binary)
Coefficient statistics:
  Matrix range     [1e+00, 1e+00]
  Objective range  [3e-03, 1e+00]
  Bounds range     [1e+00, 1e+00]
  RHS range        [1e+00, 2e+02]
Presolve removed 1520 rows and 1515 columns
Presolve time: 0.05s
Presolved: 4487 rows, 3014 columns, 21975 nonzeros
Variable types: 2994 continuous, 20 integer (20 binary)
Found heuristic solution: objective 225.9058033

Root relaxation: objective 2.361981e+02, 2674 iterations, 0.10 seconds (0.12 work units)

    Nodes    |    Current Node    |     Objective Bounds      |     Work
 Expl Unexpl |  Obj  Depth IntInf | Incumbent    BestBd   Gap | It/Node Time

     0     0  236.19814    0    3  225.90580  236.19814  4.56%     -    0s
     0     0  236.15562    0    2  225.90580  236.15562  4.54%     -    0s
H    0     0                     235.9994464  236.15562  0.07%     -    0s
     0     0  236.15273    0    4  235.99945  236.15273  0.06%     -    0s
     0     0     cutoff    0       235.99945  235.99945  0.00%     -    0s

Explored 1 nodes (3269 simplex iterations) in 0.59 seconds (0.42 work units)
Thread count was 20 (of 20 available processors)

Solution count 2: 235.999 225.906 

Optimal solution found (tolerance 1.00e-04)
Best objective 2.359994463834e+02, best bound 2.359994463834e+02, gap 0.0000%



#########node  1
V1.6
#########node  2
0.0196078431372549,0.9803921568627451
#########node  3
1.0,0.0


Total Solving Time 0.9506001472473145
obj value 235.9994463833747
Policy Regret train (Sum) 1.948859407221686
Best Treatment Found train (%) 79.80000000000001
treatment classification acc train (%) 31.2
Policy Regret test (Sum) 33.257454375572316
Best Treatment Found test (%) 81.92
treatment classification acc test (%) 29.880000000000003
